/*********************************************
 * OPL 12.6.0.0 Data
 * Author: feng
 * Creation Date: Nov 29, 2017 at 1:39:45 PM
 *********************************************/
hours = 12;
nNurses = 3;
minHours = 6;
maxHours = 8;
maxConsec = 3;
maxPresence = 10;

demand=[1 1 1 1 1 1 1 1 1 1 1 1];